c ind 10 101 103 105 107 109 11 111 113 115 0
c ind 14 15 170 172 174 176 178 18 180 182 0
c ind 184 186 188 190 192 194 196 198 200 217 0
c ind 219 221 223 225 227 229 231 233 235 237 0
c ind 239 241 243 245 247 35 36 38 40 42 0
c ind 44 46 48 50 52 54 56 58 6 60 0
c ind 62 64 66 7 78 81 84 0
p cnf 247 649
-1 -2 16 0
-1 2 201 0
-100 -101 36 0
-100 -36 101 0
-102 -103 36 0
-102 -36 103 0
-104 -105 36 0
-104 -36 105 0
-106 -107 36 0
-106 -36 107 0
-108 -109 36 0
-108 -36 109 0
-110 -111 36 0
-110 -36 111 0
-112 -113 36 0
-112 -36 113 0
-114 -115 18 0
-114 -18 115 0
-116 117 0
-116 150 0
-117 118 0
-117 146 0
-118 119 0
-118 142 0
-119 120 0
-119 138 0
-12 -13 0
-120 121 0
-120 134 0
-121 122 0
-121 130 0
-122 123 0
-122 126 0
-123 -124 36 0
-123 -36 124 0
-124 -125 -36 0
-124 125 36 0
-125 -101 -18 0
-125 101 18 0
-126 -127 36 0
-126 -36 127 0
-127 -128 -129 0
-127 128 129 0
-128 -103 -36 0
-128 103 36 0
-129 101 36 0
-13 -14 15 0
-13 -15 14 0
-130 -131 36 0
-130 -36 131 0
-131 -132 -133 0
-131 132 133 0
-132 -105 -36 0
-132 105 36 0
-133 103 0
-133 129 0
-134 -135 36 0
-134 -36 135 0
-135 -136 -137 0
-135 136 137 0
-136 -107 -36 0
-136 107 36 0
-137 105 0
-137 133 0
-138 -139 36 0
-138 -36 139 0
-139 -140 -141 0
-139 140 141 0
-140 -109 -36 0
-140 109 36 0
-141 107 0
-141 137 0
-142 -143 36 0
-142 -36 143 0
-143 -144 -145 0
-143 144 145 0
-144 -111 -36 0
-144 111 36 0
-145 109 0
-145 141 0
-146 -147 36 0
-146 -36 147 0
-147 -148 -149 0
-147 148 149 0
-148 -113 -36 0
-148 113 36 0
-149 111 0
-149 145 0
-150 -151 18 0
-150 -18 151 0
-151 -152 -153 0
-151 152 153 0
-152 -115 -36 0
-152 115 36 0
-153 113 0
-153 149 0
-154 155 0
-154 199 0
-155 156 0
-155 197 0
-156 157 0
-156 195 0
-157 158 0
-157 193 0
-158 159 0
-158 191 0
-159 160 0
-159 189 0
-16 -17 19 0
-16 17 67 0
-160 161 0
-160 187 0
-161 162 0
-161 185 0
-162 163 0
-162 183 0
-163 164 0
-163 181 0
-164 165 0
-164 179 0
-165 166 0
-165 177 0
-166 167 0
-166 175 0
-167 168 0
-167 173 0
-168 169 0
-168 171 0
-169 -170 35 0
-169 -35 170 0
-17 -18 6 0
-17 -6 18 0
-171 -172 38 0
-171 -38 172 0
-173 -174 40 0
-173 -40 174 0
-175 -176 42 0
-175 -42 176 0
-177 -178 44 0
-177 -44 178 0
-179 -180 46 0
-179 -46 180 0
-181 -182 48 0
-181 -48 182 0
-183 -184 50 0
-183 -50 184 0
-185 -186 52 0
-185 -52 186 0
-187 -188 54 0
-187 -54 188 0
-189 -190 56 0
-189 -56 190 0
-19 20 0
-19 65 0
-191 -192 58 0
-191 -58 192 0
-193 -194 60 0
-193 -60 194 0
-195 -196 62 0
-195 -62 196 0
-197 -198 64 0
-197 -64 198 0
-199 -200 66 0
-199 -66 200 0
-2 3 12 0
-20 21 0
-20 63 0
-201 202 0
-201 246 0
-202 203 0
-202 244 0
-203 204 0
-203 242 0
-204 205 0
-204 240 0
-205 206 0
-205 238 0
-206 207 0
-206 236 0
-207 208 0
-207 234 0
-208 209 0
-208 232 0
-209 210 0
-209 230 0
-21 22 0
-21 61 0
-210 211 0
-210 228 0
-211 212 0
-211 226 0
-212 213 0
-212 224 0
-213 214 0
-213 222 0
-214 215 0
-214 220 0
-215 216 0
-215 218 0
-216 -217 35 0
-216 -35 217 0
-218 -219 38 0
-218 -38 219 0
-22 23 0
-22 59 0
-220 -221 40 0
-220 -40 221 0
-222 -223 42 0
-222 -42 223 0
-224 -225 44 0
-224 -44 225 0
-226 -227 46 0
-226 -46 227 0
-228 -229 48 0
-228 -48 229 0
-23 24 0
-23 57 0
-230 -231 50 0
-230 -50 231 0
-232 -233 52 0
-232 -52 233 0
-234 -235 54 0
-234 -54 235 0
-236 -237 56 0
-236 -56 237 0
-238 -239 58 0
-238 -58 239 0
-24 25 0
-24 55 0
-240 -241 60 0
-240 -60 241 0
-242 -243 62 0
-242 -62 243 0
-244 -245 64 0
-244 -64 245 0
-246 -247 66 0
-246 -66 247 0
-25 26 0
-25 53 0
-26 27 0
-26 51 0
-27 28 0
-27 49 0
-28 29 0
-28 47 0
-29 30 0
-29 45 0
-3 4 8 0
-30 31 0
-30 43 0
-31 32 0
-31 41 0
-32 33 0
-32 39 0
-33 34 0
-33 37 0
-34 -35 36 0
-34 -36 35 0
-36 0
-37 -36 38 0
-37 -38 36 0
-39 -36 40 0
-39 -40 36 0
-4 -5 0
-41 -36 42 0
-41 -42 36 0
-43 -36 44 0
-43 -44 36 0
-45 -36 46 0
-45 -46 36 0
-47 -36 48 0
-47 -48 36 0
-49 -36 50 0
-49 -50 36 0
-5 -6 7 0
-5 -7 6 0
-51 -36 52 0
-51 -52 36 0
-53 -36 54 0
-53 -54 36 0
-55 -36 56 0
-55 -56 36 0
-57 -36 58 0
-57 -58 36 0
-59 -36 60 0
-59 -60 36 0
-61 -36 62 0
-61 -62 36 0
-63 -36 64 0
-63 -64 36 0
-65 -36 66 0
-65 -66 36 0
-67 -68 19 0
-67 68 69 0
-68 -10 18 0
-68 -18 10 0
-69 -70 72 0
-69 70 201 0
-70 12 0
-70 71 0
-71 -14 18 0
-71 -18 14 0
-72 -73 19 0
-72 73 154 0
-73 -74 85 0
-73 74 93 0
-74 75 82 0
-75 76 79 0
-76 -77 0
-77 -7 78 0
-77 -78 7 0
-79 -80 0
-8 -9 0
-80 -11 81 0
-80 -81 11 0
-82 -83 0
-83 -15 84 0
-83 -84 15 0
-85 -86 36 0
-85 86 87 0
-86 -18 7 0
-86 -7 18 0
-87 -88 36 0
-87 88 89 0
-88 -11 18 0
-88 -18 11 0
-89 -90 92 0
-89 90 93 0
-9 -10 11 0
-9 -11 10 0
-90 82 0
-90 91 0
-91 -15 18 0
-91 -18 15 0
-92 -93 36 0
-92 93 116 0
-93 114 0
-93 94 0
-94 112 0
-94 95 0
-95 110 0
-95 96 0
-96 108 0
-96 97 0
-97 106 0
-97 98 0
-98 104 0
-98 99 0
-99 100 0
-99 102 0
1 -16 -201 0
1 -2 -16 0
1 0
1 2 -201 0
100 -101 -36 0
100 101 36 0
102 -103 -36 0
102 103 36 0
104 -105 -36 0
104 105 36 0
106 -107 -36 0
106 107 36 0
108 -109 -36 0
108 109 36 0
110 -111 -36 0
110 111 36 0
112 -113 -36 0
112 113 36 0
114 -115 -18 0
114 115 18 0
116 -117 -150 0
117 -118 -146 0
118 -119 -142 0
119 -120 -138 0
12 13 0
120 -121 -134 0
121 -122 -130 0
122 -123 -126 0
123 -124 -36 0
123 124 36 0
124 -125 36 0
124 -36 125 0
125 -101 18 0
125 -18 101 0
126 -127 -36 0
126 127 36 0
127 -128 129 0
127 -129 128 0
128 -103 36 0
128 -36 103 0
129 -101 0
129 -36 0
13 -14 -15 0
13 14 15 0
130 -131 -36 0
130 131 36 0
131 -132 133 0
131 -133 132 0
132 -105 36 0
132 -36 105 0
133 -103 -129 0
134 -135 -36 0
134 135 36 0
135 -136 137 0
135 -137 136 0
136 -107 36 0
136 -36 107 0
137 -105 -133 0
138 -139 -36 0
138 139 36 0
139 -140 141 0
139 -141 140 0
140 -109 36 0
140 -36 109 0
141 -107 -137 0
142 -143 -36 0
142 143 36 0
143 -144 145 0
143 -145 144 0
144 -111 36 0
144 -36 111 0
145 -109 -141 0
146 -147 -36 0
146 147 36 0
147 -148 149 0
147 -149 148 0
148 -113 36 0
148 -36 113 0
149 -111 -145 0
150 -151 -18 0
150 151 18 0
151 -152 153 0
151 -153 152 0
152 -115 36 0
152 -36 115 0
153 -113 -149 0
154 -155 -199 0
155 -156 -197 0
156 -157 -195 0
157 -158 -193 0
158 -159 -191 0
159 -160 -189 0
16 -17 -19 0
16 -19 -67 0
16 17 -67 0
160 -161 -187 0
161 -162 -185 0
162 -163 -183 0
163 -164 -181 0
164 -165 -179 0
165 -166 -177 0
166 -167 -175 0
167 -168 -173 0
168 -169 -171 0
169 -35 -170 0
169 35 170 0
17 -6 -18 0
17 6 18 0
171 -38 -172 0
171 38 172 0
173 -40 -174 0
173 40 174 0
175 -42 -176 0
175 42 176 0
177 -44 -178 0
177 44 178 0
179 -46 -180 0
179 46 180 0
18 0
181 -48 -182 0
181 48 182 0
183 -50 -184 0
183 50 184 0
185 -52 -186 0
185 52 186 0
187 -54 -188 0
187 54 188 0
189 -56 -190 0
189 56 190 0
19 -20 -65 0
191 -58 -192 0
191 58 192 0
193 -60 -194 0
193 60 194 0
195 -62 -196 0
195 62 196 0
197 -64 -198 0
197 64 198 0
199 -66 -200 0
199 66 200 0
2 -12 0
2 -3 0
20 -21 -63 0
201 -202 -246 0
202 -203 -244 0
203 -204 -242 0
204 -205 -240 0
205 -206 -238 0
206 -207 -236 0
207 -208 -234 0
208 -209 -232 0
209 -210 -230 0
21 -22 -61 0
210 -211 -228 0
211 -212 -226 0
212 -213 -224 0
213 -214 -222 0
214 -215 -220 0
215 -216 -218 0
216 -35 -217 0
216 35 217 0
218 -38 -219 0
218 38 219 0
22 -23 -59 0
220 -40 -221 0
220 40 221 0
222 -42 -223 0
222 42 223 0
224 -44 -225 0
224 44 225 0
226 -46 -227 0
226 46 227 0
228 -48 -229 0
228 48 229 0
23 -24 -57 0
230 -50 -231 0
230 50 231 0
232 -52 -233 0
232 52 233 0
234 -54 -235 0
234 54 235 0
236 -56 -237 0
236 56 237 0
238 -58 -239 0
238 58 239 0
24 -25 -55 0
240 -60 -241 0
240 60 241 0
242 -62 -243 0
242 62 243 0
244 -64 -245 0
244 64 245 0
246 -66 -247 0
246 66 247 0
25 -26 -53 0
26 -27 -51 0
27 -28 -49 0
28 -29 -47 0
29 -30 -45 0
3 -4 0
3 -8 0
30 -31 -43 0
31 -32 -41 0
32 -33 -39 0
33 -34 -37 0
34 -35 -36 0
34 35 36 0
37 -38 -36 0
37 38 36 0
39 -40 -36 0
39 40 36 0
4 5 0
41 -42 -36 0
41 42 36 0
43 -44 -36 0
43 44 36 0
45 -46 -36 0
45 46 36 0
47 -48 -36 0
47 48 36 0
49 -50 -36 0
49 50 36 0
5 -6 -7 0
5 6 7 0
51 -52 -36 0
51 52 36 0
53 -54 -36 0
53 54 36 0
55 -56 -36 0
55 56 36 0
57 -58 -36 0
57 58 36 0
59 -60 -36 0
59 60 36 0
61 -62 -36 0
61 62 36 0
63 -64 -36 0
63 64 36 0
65 -66 -36 0
65 66 36 0
67 -19 -69 0
67 -68 -19 0
67 68 -69 0
68 -10 -18 0
68 10 18 0
69 -70 -72 0
69 -72 -201 0
69 70 -201 0
70 -12 -71 0
71 -14 -18 0
71 14 18 0
72 -19 -154 0
72 -73 -19 0
72 73 -154 0
73 -74 -85 0
73 -85 -93 0
73 74 -93 0
74 -75 0
74 -82 0
75 -76 0
75 -79 0
76 77 0
77 -7 -78 0
77 7 78 0
79 80 0
8 9 0
80 -11 -81 0
80 11 81 0
82 83 0
83 -15 -84 0
83 15 84 0
85 -36 -87 0
85 -86 -36 0
85 86 -87 0
86 -7 -18 0
86 7 18 0
87 -36 -89 0
87 -88 -36 0
87 88 -89 0
88 -11 -18 0
88 11 18 0
89 -90 -92 0
89 -92 -93 0
89 90 -93 0
9 -10 -11 0
9 10 11 0
90 -82 -91 0
91 -15 -18 0
91 15 18 0
92 -36 -116 0
92 -93 -36 0
92 93 -116 0
93 -94 -114 0
94 -95 -112 0
95 -96 -110 0
96 -97 -108 0
97 -98 -106 0
98 -99 -104 0
99 -100 -102 0
